; benchmark generated from python API
(set-info :status unknown)
(declare-datatypes ((RealState 0)) (((RMk1 (rval1 Real)) (RMk2 (rval2 Real)))))
 (assert
 (forall ((|v11:0| Real) )(exists ((|v10:1_st| RealState) (val!2604 Real) )(forall ((|v9:2| Real) )(exists ((|v8:3_st| RealState) (val!2605 Real) )(forall ((|v7:4| Real) )(exists ((|v6:5_st| RealState) (val!2606 Real) )(forall ((|v5:6| Real) )(exists ((|v4:7_st| RealState) (val!2607 Real) )(forall ((|v3:8| Real) )(exists ((|v2:9_st| RealState) (val!2608 Real) )(forall ((|v1:10| Real) )(exists ((|v0:11_st| RealState) (val!2609 Real) )(let ((?x1784 (- 3.0)))
 (let ((?x581 (rval2 |v8:3_st|)))
 (let ((?x2569 (+ (+ (+ (* (- 7.0) |v9:2|) (* (- 4.0) |v11:0|)) (* 6.0 ?x581)) ?x581)))
 (let ((?x2356 (rval2 |v2:9_st|)))
 (let ((?x1078 (* 6.0 ?x2356)))
 (let ((?x1491 (+ (+ (+ (* (- 7.0) |v11:0|) (* (- 18.0) ?x581)) ?x1078) (* 19.0 (rval2 |v0:11_st|)))))
 (let ((?x1152 (rval2 |v10:1_st|)))
 (let ((?x347 (- 7.0)))
 (let ((?x2995 (* ?x347 ?x1152)))
 (let ((?x2603 (+ (+ (* 3.0 (rval2 |v4:7_st|)) (* (- 9.0) |v3:8|)) (* (- 16.0) ?x581))))
 (let ((?x1845 (- 14.0)))
 (let ((?x2509 (rval2 |v6:5_st|)))
 (let ((?x520 (* 11.0 ?x2509)))
 (let (($x1637 (<= (+ (+ (+ (* (- 9.0) ?x2509) ?x2995) (* (- 18.0) |v7:4|)) ?x520) ?x1845)))
 (let ((?x2905 (- 15.0)))
 (let ((?x1985 (rval2 |v0:11_st|)))
 (let ((?x710 (- 11.0)))
 (let ((?x951 (* ?x710 ?x1985)))
 (let ((?x2166 (+ (+ (+ (* (- 19.0) ?x2509) (* 16.0 ?x1985)) (* 7.0 |v3:8|)) ?x951)))
 (let ((?x1404 (- 2.0)))
 (let ((?x2182 (* 17.0 |v11:0|)))
 (let ((?x2046 (+ (+ (+ (* 0.0 ?x1152) (* 19.0 |v7:4|)) (* 7.0 (rval2 |v4:7_st|))) ?x2182)))
 (let ((?x2651 (* 5.0 |v11:0|)))
 (let (($x262 (<= (+ (+ (+ (* 18.0 |v3:8|) ?x1078) (* (- 10.0) ?x2356)) ?x2651) 13.0)))
 (let ((?x271 (- 20.0)))
 (let ((?x544 (* ?x271 |v3:8|)))
 (let ((?x701 (+ (+ (* (- 12.0) (rval2 |v4:7_st|)) (* 8.0 |v9:2|)) (* (- 18.0) ?x1985))))
 (let (($x2056 (and (or (<= (+ ?x701 ?x544) 9.0) $x262) (or (<= ?x2046 ?x1404) (<= ?x2166 ?x2905)))))
 (let ((?x2848 (- 8.0)))
 (let ((?x1896 (- 13.0)))
 (let ((?x685 (* ?x1896 |v5:6|)))
 (let ((?x1944 (+ (+ (+ (* (- 4.0) |v7:4|) (* (- 17.0) ?x2509)) (* 7.0 |v7:4|)) ?x685)))
 (let ((?x2158 (* 2.0 ?x1152)))
 (let (($x20 (<= (+ (+ (+ (* (- 19.0) |v9:2|) (* ?x347 |v3:8|)) (* 13.0 ?x1985)) ?x2158) 13.0)))
 (let (($x1406 (<= (+ (+ (+ ?x2509 (* 11.0 |v3:8|)) (* 13.0 ?x2509)) (* 15.0 ?x1152)) 18.0)))
 (let ((?x1437 (+ (+ (+ (* 15.0 ?x2356) (* (- 10.0) |v9:2|)) (* ?x1896 |v11:0|)) (* ?x2905 ?x581))))
 (let ((?x2975 (- 19.0)))
 (let ((?x1462 (* ?x2975 |v1:10|)))
 (let (($x1252 (<= (+ (+ (+ (* 19.0 ?x2356) (* ?x1404 ?x1985)) (* (- 1.0) |v5:6|)) ?x1462) 18.0)))
 (let (($x471 (<= (+ (+ (+ ?x520 (* 18.0 ?x1985)) (* 5.0 ?x1985)) (* ?x1404 ?x1152)) ?x271)))
 (let ((?x2575 (* 13.0 |v1:10|)))
 (let (($x2375 (<= (+ (+ (+ (* 12.0 |v3:8|) ?x1462) (* (- 5.0) |v11:0|)) ?x2575) ?x1896)))
 (let ((?x473 (* 15.0 |v3:8|)))
 (let ((?x510 (+ (+ (+ (* 0.0 |v7:4|) (* 20.0 ?x2509)) (* (- 10.0) ?x581)) ?x473)))
 (let (($x2290 (or (or (and (<= ?x510 13.0) $x2375) (and $x471 $x1252)) (and (and (<= ?x1437 19.0) $x1406) (or $x20 (<= ?x1944 ?x2848))))))
 (let (($x1900 (or $x2290 (or $x2056 (or $x1637 (or (<= (+ ?x2603 ?x2995) 13.0) (<= ?x1491 9.0)))))))
 (let ((?x1455 (* 20.0 |v11:0|)))
 (let (($x3029 (<= (+ (+ (+ (* 5.0 ?x2356) (* 8.0 ?x2356)) (* 15.0 ?x1152)) ?x1455) 1.0)))
 (let ((?x1120 (+ (+ (+ ?x1455 (* 17.0 ?x2356)) (* (- 4.0) ?x1152)) (* (- 18.0) ?x2356))))
 (let ((?x745 (+ (+ (+ (* 11.0 ?x1152) (* ?x2848 |v11:0|)) (* 2.0 |v1:10|)) (* 3.0 |v11:0|))))
 (let ((?x2701 (+ (+ (+ (* (- 1.0) |v7:4|) (* (- 6.0) |v7:4|)) (* 20.0 |v1:10|)) (* (- 16.0) |v3:8|))))
 (let ((?x484 (- 4.0)))
 (let ((?x1213 (+ (+ (+ (* ?x2848 |v1:10|) (* 14.0 ?x581)) (* 3.0 |v5:6|)) (* (- 17.0) |v11:0|))))
 (let (($x1791 (<= (+ (+ (+ (* (- 12.0) ?x1152) ?x473) (* (- 1.0) ?x581)) ?x685) 2.0)))
 (let ((?x2579 (+ (+ (+ (* 9.0 |v3:8|) (* ?x484 (rval2 |v4:7_st|))) (* ?x1845 |v1:10|)) ?x951)))
 (let ((?x1757 (+ (+ (+ (* 2.0 ?x2356) (* 5.0 ?x2356)) (* 15.0 ?x1985)) (* 6.0 ?x1985))))
 (let (($x2923 (and (and (<= ?x1757 20.0) (<= ?x2579 ?x484)) (or $x1791 (<= ?x1213 ?x484)))))
 (let (($x526 (and $x2923 (or (or (<= ?x2701 4.0) (<= ?x745 ?x1784)) (or (<= ?x1120 ?x1784) $x3029)))))
 (let ((?x34 (+ (+ (+ (* 12.0 (rval2 |v4:7_st|)) (* ?x2975 ?x1152)) ?x1985) (* 2.0 (rval2 |v4:7_st|)))))
 (let ((?x691 (+ (+ (+ (* 3.0 |v5:6|) (* (- 12.0) |v3:8|)) ?x544) (* 19.0 ?x2509))))
 (let ((?x1555 (- 16.0)))
 (let ((?x1893 (* ?x1555 |v1:10|)))
 (let (($x2315 (or (<= (+ (+ (+ (* 20.0 |v7:4|) |v5:6|) (* 13.0 ?x1985)) ?x1893) 2.0) (or (<= ?x691 3.0) (<= ?x34 8.0)))))
 (let ((?x2521 (+ (+ (+ (* (- 17.0) |v7:4|) (* 3.0 |v9:2|)) (* 0.0 (rval2 |v4:7_st|))) (* ?x1896 |v9:2|))))
 (let ((?x2270 (+ (+ (* 12.0 ?x2356) (* (- 18.0) (rval2 |v4:7_st|))) (* (- 12.0) |v7:4|))))
 (let ((?x2637 (+ (+ (+ (* (- 10.0) |v5:6|) (* ?x2905 |v3:8|)) (* 13.0 ?x2356)) (* (- 18.0) ?x1152))))
 (let ((?x2481 (+ (+ (+ (* 5.0 ?x1152) (* ?x347 |v9:2|)) (* 17.0 |v5:6|)) (* (- 10.0) |v7:4|))))
 (let (($x3176 (and (or (<= ?x2481 16.0) (<= ?x2637 18.0)) (and (<= (+ ?x2270 (* 10.0 |v11:0|)) 17.0) (<= ?x2521 14.0)))))
 (let ((?x159 (* 17.0 ?x1152)))
 (let (($x2508 (<= (+ (+ (+ (* 15.0 ?x1985) (* 7.0 |v7:4|)) (* ?x2848 |v5:6|)) ?x159) 6.0)))
 (let (($x777 (or $x2508 (<= (+ (+ (+ (* ?x1845 ?x1985) ?x1893) (* 19.0 |v3:8|)) ?x2356) 4.0))))
 (let ((?x2866 (* 7.0 ?x1985)))
 (let (($x2015 (<= (+ (+ (+ (* 12.0 |v9:2|) (* 17.0 ?x2509)) (* 5.0 |v5:6|)) ?x2866) ?x1896)))
 (let ((?x2205 (- 6.0)))
 (let ((?x953 (rval2 |v4:7_st|)))
 (let ((?x481 (* 16.0 ?x953)))
 (let (($x1666 (<= (+ (+ (+ (* 5.0 |v1:10|) (* 3.0 |v1:10|)) (* ?x2975 |v11:0|)) ?x481) ?x2205)))
 (let ((?x2672 (- 1.0)))
 (let ((?x908 (- 17.0)))
 (let ((?x489 (* ?x908 |v7:4|)))
 (let (($x293 (<= (+ (+ (+ (* ?x1784 ?x953) (* 15.0 ?x581)) (* 0.0 ?x2356)) ?x489) ?x2672)))
 (let ((?x1027 (+ (+ (+ (* ?x1896 ?x581) (* ?x1784 ?x2356)) (* 16.0 ?x1152)) (* 16.0 |v5:6|))))
 (let (($x763 (<= (+ (+ (+ ?x1455 (* ?x1555 ?x1985)) (* 3.0 |v5:6|)) (* ?x271 ?x1152)) ?x2848)))
 (let ((?x1448 (* 9.0 ?x1985)))
 (let (($x1721 (<= (+ (+ (+ (* 8.0 ?x2509) (* 6.0 |v1:10|)) (* ?x1784 ?x953)) ?x1448) ?x2905)))
 (let (($x116 (or (and (and $x1721 $x763) (or (<= ?x1027 ?x2905) $x293)) (and (and $x1666 $x2015) $x777))))
 (let ((?x955 (+ (+ (+ (* ?x1404 |v7:4|) (* 7.0 |v11:0|)) (* ?x1845 |v7:4|)) (* ?x1896 ?x953))))
 (let ((?x2932 (+ (+ (+ (* 13.0 |v7:4|) (* ?x2848 |v11:0|)) (* 17.0 ?x2509)) (* ?x2672 ?x2509))))
 (let ((?x1782 (- 12.0)))
 (let ((?x1102 (* 13.0 ?x2356)))
 (let (($x1130 (<= (+ (+ (+ (* 5.0 |v3:8|) (* ?x2975 |v11:0|)) (* 8.0 |v3:8|)) ?x1102) ?x1782)))
 (let ((?x2806 (* ?x1896 |v3:8|)))
 (let (($x1566 (<= (+ (+ (+ (* ?x484 ?x581) (* 5.0 |v5:6|)) (* ?x1782 |v5:6|)) ?x2806) 8.0)))
 (let ((?x1861 (+ (+ (+ (* 0.0 |v7:4|) (* 16.0 ?x2509)) (* ?x2205 ?x1152)) (* ?x2905 ?x2509))))
 (let ((?x2464 (+ (+ (+ (* ?x2975 ?x2509) (* 3.0 |v9:2|)) (* ?x2848 ?x1152)) (* ?x1782 ?x2356))))
 (let ((?x2408 (* 14.0 ?x1985)))
 (let (($x2032 (<= (+ (+ (+ (* ?x2205 |v11:0|) (* ?x908 ?x2356)) (* 0.0 |v7:4|)) ?x2408) 9.0)))
 (let ((?x2766 (- 10.0)))
 (let (($x418 (<= (+ (+ (+ (* 5.0 |v9:2|) |v9:2|) (* ?x484 |v5:6|)) (* 14.0 |v9:2|)) ?x2766)))
 (let (($x407 (and (or (or $x418 $x2032) (or (<= ?x2464 16.0) (<= ?x1861 ?x1404))) (and (or $x1566 $x1130) (or (<= ?x2932 14.0) (<= ?x955 4.0))))))
 (let (($x1935 (or (and (or $x407 $x116) (and (and $x3176 $x2315) $x526)) (and $x1900 (<= ?x2569 ?x1784)))))
 (let (($x1423 (not (= |v0:11_st| (RMk1 val!2609)))))
 (let (($x937 (not (= |v2:9_st| (RMk1 val!2608)))))
 (let (($x1277 (not (= |v4:7_st| (RMk1 val!2607)))))
 (let (($x1151 (not (= |v6:5_st| (RMk1 val!2606)))))
 (let (($x1011 (not (= |v8:3_st| (RMk1 val!2605)))))
 (let (($x439 (not (= |v10:1_st| (RMk1 val!2604)))))
 (and $x439 $x1011 $x1151 $x1277 $x937 $x1423 $x1935)))))))))))))))))))))))))))))))))))))))))))))))))))))))))))))))))))))))))))))))))))))))))))))))))))))))))))))
 )
 )
 )
 )
 )
 )
 )
 )
 )
 )
 )
 )
(check-sat)
